NAME : N101P4.807.tour
COMMENT : Cost = 0_807
COMMENT : Found by LKH [Keld Helsgaun] Sun Sep 17 15:52:35 2017
TYPE : TOUR
DIMENSION : 101
TOUR_SECTION
1
66
65
98
4
14
58
77
55
41
62
79
96
37
49
47
100
2
54
43
82
9
31
76
63
92
71
44
68
75
56
64
20
23
97
95
99
12
18
32
53
88
67
89
48
3
74
30
72
26
19
6
17
73
93
28
50
11
42
27
45
90
29
70
7
5
15
46
52
39
84
69
80
25
40
59
61
101
13
60
10
35
24
78
85
94
87
86
34
16
22
8
83
81
21
36
33
51
91
38
57
-1
EOF
